NAME          ClpDefau
ROWS
 N  OBJROW
 L  R_180_0
 L  R_180_1
 L  R_180_2
 L  R_180_3
 L  R_180_4
 L  R_180_5
 L  R_180_6
 L  R_180_7
 L  R_180_8
 L  R_180_9
 L  R_180_10
 L  R_180_11
 L  R_180_12
 L  R_180_13
 L  R_180_14
 L  R_180_15
COLUMNS
    x_0       OBJROW     -8.           R_180_0   28.         
    x_0       R_180_1   75.            R_180_2   56.         
    x_0       R_180_3   93.            R_180_5   48.         
    x_0       R_180_6   57.            R_180_7   5.          
    x_0       R_180_9   41.            R_180_11  68.         
    x_0       R_180_12  23.            R_180_13  4.          
    x_0       R_180_14  23.            R_180_15  66.         
    x_1       OBJROW     -12.          R_180_0   66.         
    x_1       R_180_1   24.            R_180_3   54.         
    x_1       R_180_4   98.            R_180_5   76.         
    x_1       R_180_6   58.            R_180_7   97.         
    x_1       R_180_8   95.            R_180_9   68.         
    x_1       R_180_10  36.            R_180_12  46.         
    x_1       R_180_13  59.            R_180_15  73.         
    x_2       OBJROW     -11.          R_180_0   72.         
    x_2       R_180_1   63.            R_180_2   42.         
    x_2       R_180_6   99.            R_180_8   91.         
    x_2       R_180_10  65.            R_180_11  76.         
    x_2       R_180_12  94.            R_180_13  66.         
    x_2       R_180_14  88.            R_180_15  10.         
    x_3       OBJROW     -47.          R_180_0   44.         
    x_3       R_180_1   25.            R_180_3   74.         
    x_3       R_180_4   35.            R_180_5   88.         
    x_3       R_180_7   67.            R_180_8   35.         
    x_3       R_180_9   27.            R_180_11  92.         
    x_3       R_180_12  8.             R_180_13  23.         
    x_3       R_180_14  4.             R_180_15  9.          
    x_4       OBJROW     -22.          R_180_0   94.         
    x_4       R_180_2   17.            R_180_4   24.         
    x_4       R_180_5   1.             R_180_6   6.          
    x_4       R_180_7   32.            R_180_8   5.          
    x_4       R_180_9   79.            R_180_10  96.         
    x_4       R_180_11  44.            R_180_12  40.         
    x_4       R_180_13  99.            R_180_14  6.          
    x_5       OBJROW     -95.          R_180_0   80.         
    x_5       R_180_1   61.            R_180_3   88.         
    x_5       R_180_4   14.            R_180_5   17.         
    x_5       R_180_6   100.           R_180_7   66.         
    x_5       R_180_8   44.            R_180_9   78.         
    x_5       R_180_11  90.            R_180_12  18.         
    x_5       R_180_13  33.            R_180_14  21.         
    x_5       R_180_15  59.         
    x_6       OBJROW     -86.          R_180_0   66.         
    x_6       R_180_2   5.             R_180_4   57.         
    x_6       R_180_5   11.            R_180_6   80.         
    x_6       R_180_7   80.            R_180_8   33.         
    x_6       R_180_9   36.            R_180_10  1.          
    x_6       R_180_11  50.            R_180_12  15.         
    x_6       R_180_13  12.            R_180_14  13.         
    x_6       R_180_15  97.         
    x_7       OBJROW     -40.          R_180_0   28.         
    x_7       R_180_1   86.            R_180_2   40.         
    x_7       R_180_3   49.            R_180_4   98.         
    x_7       R_180_6   56.            R_180_7   3.          
    x_7       R_180_8   7.             R_180_11  13.         
    x_7       R_180_12  62.            R_180_13  67.         
    x_7       R_180_15  47.         
RHS
    RHS       R_180_0   357.           R_180_1   408.        
    RHS       R_180_2   367.           R_180_3   359.        
    RHS       R_180_4   322.           R_180_5   407.        
    RHS       R_180_6   372.           R_180_7   332.        
    RHS       R_180_8   333.           R_180_9   359.        
    RHS       R_180_10  345.           R_180_11  419.        
    RHS       R_180_12  406.           R_180_13  425.        
    RHS       R_180_14  322.           R_180_15  423.        
BOUNDS
 UI BOUND     x_0       100.        
 UI BOUND     x_1       100.        
 UI BOUND     x_2       100.        
 UI BOUND     x_3       100.        
 UI BOUND     x_4       100.        
 UI BOUND     x_5       100.        
 UI BOUND     x_6       100.        
 UI BOUND     x_7       100.        
ENDATA
